============================[ Problem Statistics ]=============================|                                                                             ||  Number of variables:          4242                                         ||  Number of clauses:           10445                                         ||  Parse time:                   0.82 s                                       ||                                                                             |============================[ Search Statistics ]==============================| Conflicts |          ORIGINAL         |          LEARNT          | Progress ||           |    Vars  Clauses Literals |    Limit  Clauses Lit/Cl |          |===============================================================================|       100 |    1591     6650  1327551 |     2438      100     53 | 62.501 % ||       250 |    1591     6650  1327551 |     2682      250     75 | 62.495 % |===============================================================================restarts              : 4conflicts             : 448            (360 /sec)decisions             : 806            (0.00 % random) (648 /sec)propagations          : 13740          (11054 /sec)conflict literals     : 37922          (94.46 % deleted)CPU time              : 1.243 sSATISFIABLE